
Gurobi 11.0.0 (linux64) logging started Sun Mar 24 16:07:21 2024

Set parameter LogFile to value "gurobi_out/log/Mar_24_fir_7_5.3.log"
Gurobi Optimizer version 11.0.0 build v11.0.0rc2 (linux64 - "CentOS Linux 7 (Core)")

CPU model: Intel Xeon E3-12xx v2 (Ivy Bridge), instruction set [SSE2|AVX]
Thread count: 24 physical cores, 24 logical processors, using up to 24 threads

Optimize a model with 404 rows, 354 columns and 981 nonzeros
Model fingerprint: 0x6ce52f57
Variable types: 254 continuous, 100 integer (50 binary)
Coefficient statistics:
  Matrix range     [1e+00, 1e+02]
  Objective range  [1e-05, 1e+00]
  Bounds range     [1e+00, 1e+00]
  RHS range        [1e-04, 5e+00]
Found heuristic solution: objective -0.0001300
Presolve removed 208 rows and 172 columns
Presolve time: 0.01s
Presolved: 196 rows, 182 columns, 563 nonzeros
Variable types: 104 continuous, 78 integer (38 binary)
Found heuristic solution: objective -0.0001100

Root relaxation: objective 9.998305e-01, 139 iterations, 0.00 seconds (0.00 work units)

    Nodes    |    Current Node    |     Objective Bounds      |     Work
 Expl Unexpl |  Obj  Depth IntInf | Incumbent    BestBd   Gap | It/Node Time

     0     0    0.99983    0   12   -0.00011    0.99983      -     -    0s
H    0     0                       0.3332433    0.99983   200%     -    0s
H    0     0                       0.4998200    0.99983   100%     -    0s
     0     0    0.99982    0   18    0.49982    0.99982   100%     -    0s
     0     0    0.99981    0   17    0.49982    0.99981   100%     -    0s
     0     0    0.99981    0   21    0.49982    0.99981   100%     -    0s
H    0     0                       0.4998700    0.99981   100%     -    0s
H    0     0                       0.9997800    0.99981  0.00%     -    0s
     0     0    0.99981    0   13    0.99978    0.99981  0.00%     -    0s
     0     0    0.99981    0    2    0.99978    0.99981  0.00%     -    0s
     0     0    0.99980    0    2    0.99978    0.99980  0.00%     -    0s
H    0     0                       0.9998000    0.99980  0.00%     -    0s

Cutting planes:
  Learned: 1
  Gomory: 2
  Cover: 1
  Implied bound: 2
  MIR: 9
  StrongCG: 1
  RLT: 1

Explored 1 nodes (233 simplex iterations) in 0.09 seconds (0.01 work units)
Thread count was 24 (of 24 available processors)

Solution count 7: 0.9998 0.99978 0.49987 ... -0.00013

Optimal solution found (tolerance 1.00e-05)
Best objective 9.998000000000e-01, best bound 9.998000609434e-01, gap 0.0000%
Warning: linear constraint 103 and linear constraint 104 have the same name "PathConstr3_nopl"

Gurobi 11.0.0 (linux64) logging started Sun Mar 24 16:57:21 2024

Set parameter LogFile to value "gurobi_out/log/Mar_24_fir_7_5.3.log"
Gurobi Optimizer version 11.0.0 build v11.0.0rc2 (linux64 - "CentOS Linux 7 (Core)")

CPU model: Intel Xeon E3-12xx v2 (Ivy Bridge), instruction set [SSE2|AVX]
Thread count: 24 physical cores, 24 logical processors, using up to 24 threads

Optimize a model with 404 rows, 354 columns and 981 nonzeros
Model fingerprint: 0x6ce52f57
Variable types: 254 continuous, 100 integer (50 binary)
Coefficient statistics:
  Matrix range     [1e+00, 1e+02]
  Objective range  [1e-05, 1e+00]
  Bounds range     [1e+00, 1e+00]
  RHS range        [1e-04, 5e+00]
Found heuristic solution: objective -0.0001300
Presolve removed 208 rows and 172 columns
Presolve time: 0.01s
Presolved: 196 rows, 182 columns, 563 nonzeros
Variable types: 104 continuous, 78 integer (38 binary)
Found heuristic solution: objective -0.0001100

Root relaxation: objective 9.998305e-01, 139 iterations, 0.00 seconds (0.00 work units)

    Nodes    |    Current Node    |     Objective Bounds      |     Work
 Expl Unexpl |  Obj  Depth IntInf | Incumbent    BestBd   Gap | It/Node Time

     0     0    0.99983    0   12   -0.00011    0.99983      -     -    0s
H    0     0                       0.3332433    0.99983   200%     -    0s
H    0     0                       0.4998200    0.99983   100%     -    0s
     0     0    0.99982    0   18    0.49982    0.99982   100%     -    0s
     0     0    0.99981    0   17    0.49982    0.99981   100%     -    0s
     0     0    0.99981    0   21    0.49982    0.99981   100%     -    0s
H    0     0                       0.4998700    0.99981   100%     -    0s
H    0     0                       0.9997800    0.99981  0.00%     -    0s
     0     0    0.99981    0   13    0.99978    0.99981  0.00%     -    0s
     0     0    0.99981    0    2    0.99978    0.99981  0.00%     -    0s
     0     0    0.99980    0    2    0.99978    0.99980  0.00%     -    0s
H    0     0                       0.9998000    0.99980  0.00%     -    0s

Cutting planes:
  Learned: 1
  Gomory: 2
  Cover: 1
  Implied bound: 2
  MIR: 9
  StrongCG: 1
  RLT: 1

Explored 1 nodes (233 simplex iterations) in 0.09 seconds (0.01 work units)
Thread count was 24 (of 24 available processors)

Solution count 7: 0.9998 0.99978 0.49987 ... -0.00013

Optimal solution found (tolerance 1.00e-05)
Best objective 9.998000000000e-01, best bound 9.998000609434e-01, gap 0.0000%
Warning: linear constraint 103 and linear constraint 104 have the same name "PathConstr3_nopl"

Gurobi 11.0.0 (linux64) logging started Sun Mar 24 18:24:00 2024

Set parameter LogFile to value "gurobi_out/log/Mar_24_fir_7_5.3.log"
Gurobi Optimizer version 11.0.0 build v11.0.0rc2 (linux64 - "CentOS Linux 7 (Core)")

CPU model: Intel Xeon E3-12xx v2 (Ivy Bridge), instruction set [SSE2|AVX]
Thread count: 24 physical cores, 24 logical processors, using up to 24 threads

Optimize a model with 404 rows, 354 columns and 981 nonzeros
Model fingerprint: 0x6ce52f57
Variable types: 254 continuous, 100 integer (50 binary)
Coefficient statistics:
  Matrix range     [1e+00, 1e+02]
  Objective range  [1e-05, 1e+00]
  Bounds range     [1e+00, 1e+00]
  RHS range        [1e-04, 5e+00]
Found heuristic solution: objective -0.0001300
Presolve removed 208 rows and 172 columns
Presolve time: 0.01s
Presolved: 196 rows, 182 columns, 563 nonzeros
Variable types: 104 continuous, 78 integer (38 binary)
Found heuristic solution: objective -0.0001100

Root relaxation: objective 9.998305e-01, 139 iterations, 0.00 seconds (0.00 work units)

    Nodes    |    Current Node    |     Objective Bounds      |     Work
 Expl Unexpl |  Obj  Depth IntInf | Incumbent    BestBd   Gap | It/Node Time

     0     0    0.99983    0   12   -0.00011    0.99983      -     -    0s
H    0     0                       0.3332433    0.99983   200%     -    0s
H    0     0                       0.4998200    0.99983   100%     -    0s
     0     0    0.99982    0   18    0.49982    0.99982   100%     -    0s
     0     0    0.99981    0   17    0.49982    0.99981   100%     -    0s
     0     0    0.99981    0   21    0.49982    0.99981   100%     -    0s
H    0     0                       0.4998700    0.99981   100%     -    0s
H    0     0                       0.9997800    0.99981  0.00%     -    0s
     0     0    0.99981    0   13    0.99978    0.99981  0.00%     -    0s
     0     0    0.99981    0    2    0.99978    0.99981  0.00%     -    0s
     0     0    0.99980    0    2    0.99978    0.99980  0.00%     -    0s
H    0     0                       0.9998000    0.99980  0.00%     -    0s

Cutting planes:
  Learned: 1
  Gomory: 2
  Cover: 1
  Implied bound: 2
  MIR: 9
  StrongCG: 1
  RLT: 1

Explored 1 nodes (233 simplex iterations) in 0.09 seconds (0.01 work units)
Thread count was 24 (of 24 available processors)

Solution count 7: 0.9998 0.99978 0.49987 ... -0.00013

Optimal solution found (tolerance 1.00e-05)
Best objective 9.998000000000e-01, best bound 9.998000609434e-01, gap 0.0000%
Warning: linear constraint 103 and linear constraint 104 have the same name "PathConstr3_nopl"

Gurobi 11.0.0 (linux64) logging started Sun Mar 24 18:24:54 2024

Set parameter LogFile to value "gurobi_out/log/Mar_24_fir_7_5.3.log"
Gurobi Optimizer version 11.0.0 build v11.0.0rc2 (linux64 - "CentOS Linux 7 (Core)")

CPU model: Intel Xeon E3-12xx v2 (Ivy Bridge), instruction set [SSE2|AVX]
Thread count: 24 physical cores, 24 logical processors, using up to 24 threads

Optimize a model with 404 rows, 354 columns and 981 nonzeros
Model fingerprint: 0x6ce52f57
Variable types: 254 continuous, 100 integer (50 binary)
Coefficient statistics:
  Matrix range     [1e+00, 1e+02]
  Objective range  [1e-05, 1e+00]
  Bounds range     [1e+00, 1e+00]
  RHS range        [1e-04, 5e+00]
Found heuristic solution: objective -0.0001300
Presolve removed 208 rows and 172 columns
Presolve time: 0.01s
Presolved: 196 rows, 182 columns, 563 nonzeros
Variable types: 104 continuous, 78 integer (38 binary)
Found heuristic solution: objective -0.0001100

Root relaxation: objective 9.998305e-01, 139 iterations, 0.00 seconds (0.00 work units)

    Nodes    |    Current Node    |     Objective Bounds      |     Work
 Expl Unexpl |  Obj  Depth IntInf | Incumbent    BestBd   Gap | It/Node Time

     0     0    0.99983    0   12   -0.00011    0.99983      -     -    0s
H    0     0                       0.3332433    0.99983   200%     -    0s
H    0     0                       0.4998200    0.99983   100%     -    0s
     0     0    0.99982    0   18    0.49982    0.99982   100%     -    0s
     0     0    0.99981    0   17    0.49982    0.99981   100%     -    0s
     0     0    0.99981    0   21    0.49982    0.99981   100%     -    0s
H    0     0                       0.4998700    0.99981   100%     -    0s
H    0     0                       0.9997800    0.99981  0.00%     -    0s
     0     0    0.99981    0   13    0.99978    0.99981  0.00%     -    0s
     0     0    0.99981    0    2    0.99978    0.99981  0.00%     -    0s
     0     0    0.99980    0    2    0.99978    0.99980  0.00%     -    0s
H    0     0                       0.9998000    0.99980  0.00%     -    0s

Cutting planes:
  Learned: 1
  Gomory: 2
  Cover: 1
  Implied bound: 2
  MIR: 9
  StrongCG: 1
  RLT: 1

Explored 1 nodes (233 simplex iterations) in 0.09 seconds (0.01 work units)
Thread count was 24 (of 24 available processors)

Solution count 7: 0.9998 0.99978 0.49987 ... -0.00013

Optimal solution found (tolerance 1.00e-05)
Best objective 9.998000000000e-01, best bound 9.998000609434e-01, gap 0.0000%
Warning: linear constraint 103 and linear constraint 104 have the same name "PathConstr3_nopl"

Gurobi 11.0.0 (linux64) logging started Sun Mar 24 18:25:54 2024

Set parameter LogFile to value "gurobi_out/log/Mar_24_fir_7_5.3.log"
Gurobi Optimizer version 11.0.0 build v11.0.0rc2 (linux64 - "CentOS Linux 7 (Core)")

CPU model: Intel Xeon E3-12xx v2 (Ivy Bridge), instruction set [SSE2|AVX]
Thread count: 24 physical cores, 24 logical processors, using up to 24 threads

Optimize a model with 404 rows, 354 columns and 981 nonzeros
Model fingerprint: 0x6ce52f57
Variable types: 254 continuous, 100 integer (50 binary)
Coefficient statistics:
  Matrix range     [1e+00, 1e+02]
  Objective range  [1e-05, 1e+00]
  Bounds range     [1e+00, 1e+00]
  RHS range        [1e-04, 5e+00]
Found heuristic solution: objective -0.0001300
Presolve removed 208 rows and 172 columns
Presolve time: 0.00s
Presolved: 196 rows, 182 columns, 563 nonzeros
Variable types: 104 continuous, 78 integer (38 binary)
Found heuristic solution: objective -0.0001100

Root relaxation: objective 9.998305e-01, 139 iterations, 0.00 seconds (0.00 work units)

    Nodes    |    Current Node    |     Objective Bounds      |     Work
 Expl Unexpl |  Obj  Depth IntInf | Incumbent    BestBd   Gap | It/Node Time

     0     0    0.99983    0   12   -0.00011    0.99983      -     -    0s
H    0     0                       0.3332433    0.99983   200%     -    0s
H    0     0                       0.4998200    0.99983   100%     -    0s
     0     0    0.99982    0   18    0.49982    0.99982   100%     -    0s
     0     0    0.99981    0   17    0.49982    0.99981   100%     -    0s
     0     0    0.99981    0   21    0.49982    0.99981   100%     -    0s
H    0     0                       0.4998700    0.99981   100%     -    0s
H    0     0                       0.9997800    0.99981  0.00%     -    0s
     0     0    0.99981    0   13    0.99978    0.99981  0.00%     -    0s
     0     0    0.99981    0    2    0.99978    0.99981  0.00%     -    0s
     0     0    0.99980    0    2    0.99978    0.99980  0.00%     -    0s
H    0     0                       0.9998000    0.99980  0.00%     -    0s

Cutting planes:
  Learned: 1
  Gomory: 2
  Cover: 1
  Implied bound: 2
  MIR: 9
  StrongCG: 1
  RLT: 1

Explored 1 nodes (233 simplex iterations) in 0.09 seconds (0.01 work units)
Thread count was 24 (of 24 available processors)

Solution count 7: 0.9998 0.99978 0.49987 ... -0.00013

Optimal solution found (tolerance 1.00e-05)
Best objective 9.998000000000e-01, best bound 9.998000609434e-01, gap 0.0000%
Warning: linear constraint 103 and linear constraint 104 have the same name "PathConstr3_nopl"
